NAME : wi5
TYPE : TSP
DIMENSION : 5
EDGE_WEIGHT_TYPE : EUC_2D
NODE_COORD_SECTION
1 26150.0000 10550.0000
2 26283.3333 12766.6667
3 26433.3333 13433.3333
4 26550.0000 13850.0000
5 26733.3333 11683.3333